\ This file has been generated by DOcplex
\ ENCODING=ISO-8859-1
\Problem name: Orandom25042_6.lp

Minimize
 obj: - 32.000004329062 x0 - 16.000002164531 x1 - 8.000001082266 x2
      - 16.000004329062 x3 - 8.000002164531 x4 - 4.000001082266 x5 + [
      16.000002473750 x0^2 + 16.000002473750 x0*x1 + 8.000001236875 x0*x2
      + 32.000004947500 x0*x3 + 16.000002473750 x0*x4 + 8.000001236875 x0*x5
      + 4.000000618437 x1^2 + 4.000000618437 x1*x2 + 16.000002473750 x1*x3
      + 8.000001236875 x1*x4 + 4.000000618437 x1*x5 + 1.000000154609 x2^2
      + 8.000001236875 x2*x3 + 4.000000618437 x2*x4 + 2.000000309219 x2*x5
      + 80.000002473750 x3^2 + 80.000002473750 x3*x4 + 40.000001236875 x3*x5
      + 20.000000618437 x4^2 + 20.000000618437 x4*x5 + 5.000000154609 x5^2 ]/2 +
      24.500003787929
Subject To

Bounds
 0 <= x0 <= 1
 0 <= x1 <= 1
 0 <= x2 <= 1
 0 <= x3 <= 1
 0 <= x4 <= 1
 0 <= x5 <= 1

Binaries
 x0 x1 x2 x3 x4 x5
End
